; benchmark generated from python API
(set-info :status unknown)
(declare-fun x_months () Int)
(declare-fun x_beta () Int)
(assert
 (<= (- 1202) x_months))
(assert
 (>= 1209 x_months))
(assert
 (let ((?x1231 (mod x_months 48)))
 (let ((?x13 ((as const (Array Int Int)) 0)))
 (let ((?x15 (store ?x13 0 31)))
 (let ((?x18 (store ?x15 1 30)))
 (let ((?x20 (store ?x18 2 31)))
 (let ((?x22 (store ?x20 3 30)))
 (let ((?x24 (store ?x22 4 31)))
 (let ((?x26 (store ?x24 5 31)))
 (let ((?x28 (store ?x26 6 30)))
 (let ((?x30 (store ?x28 7 31)))
 (let ((?x32 (store ?x30 8 30)))
 (let ((?x34 (store ?x32 9 31)))
 (let ((?x36 (store ?x34 10 31)))
 (let ((?x39 (store ?x36 11 28)))
 (let ((?x41 (store ?x39 12 31)))
 (let ((?x43 (store ?x41 13 30)))
 (let ((?x45 (store ?x43 14 31)))
 (let ((?x47 (store ?x45 15 30)))
 (let ((?x49 (store ?x47 16 31)))
 (let ((?x51 (store ?x49 17 31)))
 (let ((?x53 (store ?x51 18 30)))
 (let ((?x55 (store ?x53 19 31)))
 (let ((?x57 (store ?x55 20 30)))
 (let ((?x59 (store ?x57 21 31)))
 (let ((?x61 (store ?x59 22 31)))
 (let ((?x63 (store ?x61 23 28)))
 (let ((?x65 (store ?x63 24 31)))
 (let ((?x67 (store ?x65 25 30)))
 (let ((?x69 (store ?x67 26 31)))
 (let ((?x71 (store ?x69 27 30)))
 (let ((?x72 (store ?x71 28 31)))
 (let ((?x74 (store ?x72 29 31)))
 (let ((?x75 (store ?x74 30 30)))
 (let ((?x76 (store ?x75 31 31)))
 (let ((?x78 (store ?x76 32 30)))
 (let ((?x80 (store ?x78 33 31)))
 (let ((?x82 (store ?x80 34 31)))
 (let ((?x84 (store ?x82 35 28)))
 (let ((?x86 (store ?x84 36 31)))
 (let ((?x88 (store ?x86 37 30)))
 (let ((?x90 (store ?x88 38 31)))
 (let ((?x92 (store ?x90 39 30)))
 (let ((?x94 (store ?x92 40 31)))
 (let ((?x96 (store ?x94 41 31)))
 (let ((?x98 (store ?x96 42 30)))
 (let ((?x100 (store ?x98 43 31)))
 (let ((?x102 (store ?x100 44 30)))
 (let ((?x104 (store ?x102 45 31)))
 (let ((?x106 (store ?x104 46 31)))
 (let ((?x108 (store ?x106 47 29)))
 (let ((?x1967 (ite (or (= 22802 (+ x_months 24003)) (= 25202 (+ x_months 24003))) 28 (select ?x108 ?x1231))))
 (let (($x2608 (<= 0 x_beta)))
 (and $x2608 (< x_beta ?x1967)))))))))))))))))))))))))))))))))))))))))))))))))))))))
(assert
 (and (= x_months (- (+ (* 2020 12) 2) 24003)) (= 28 x_beta)))
(assert
 (let ((?x3927 (+ x_months 12)))
(let ((?x3987 (mod ?x3927 48)))
(let ((?x4571 (ite (> 22803 (+ ?x3927 24003)) 1 (ite (<= 25203 (+ ?x3927 24003)) (- 1) 0))))
(let ((?x13 ((as const (Array Int Int)) 0)))
(let ((?x15 (store ?x13 0 31)))
(let ((?x18 (store ?x15 1 30)))
(let ((?x20 (store ?x18 2 31)))
(let ((?x22 (store ?x20 3 30)))
(let ((?x24 (store ?x22 4 31)))
(let ((?x26 (store ?x24 5 31)))
(let ((?x28 (store ?x26 6 30)))
(let ((?x30 (store ?x28 7 31)))
(let ((?x32 (store ?x30 8 30)))
(let ((?x34 (store ?x32 9 31)))
(let ((?x36 (store ?x34 10 31)))
(let ((?x39 (store ?x36 11 28)))
(let ((?x41 (store ?x39 12 31)))
(let ((?x43 (store ?x41 13 30)))
(let ((?x45 (store ?x43 14 31)))
(let ((?x47 (store ?x45 15 30)))
(let ((?x49 (store ?x47 16 31)))
(let ((?x51 (store ?x49 17 31)))
(let ((?x53 (store ?x51 18 30)))
(let ((?x55 (store ?x53 19 31)))
(let ((?x57 (store ?x55 20 30)))
(let ((?x59 (store ?x57 21 31)))
(let ((?x61 (store ?x59 22 31)))
(let ((?x63 (store ?x61 23 28)))
(let ((?x65 (store ?x63 24 31)))
(let ((?x67 (store ?x65 25 30)))
(let ((?x69 (store ?x67 26 31)))
(let ((?x71 (store ?x69 27 30)))
(let ((?x72 (store ?x71 28 31)))
(let ((?x74 (store ?x72 29 31)))
(let ((?x75 (store ?x74 30 30)))
(let ((?x76 (store ?x75 31 31)))
(let ((?x78 (store ?x76 32 30)))
(let ((?x80 (store ?x78 33 31)))
(let ((?x82 (store ?x80 34 31)))
(let ((?x84 (store ?x82 35 28)))
(let ((?x86 (store ?x84 36 31)))
(let ((?x88 (store ?x86 37 30)))
(let ((?x90 (store ?x88 38 31)))
(let ((?x92 (store ?x90 39 30)))
(let ((?x94 (store ?x92 40 31)))
(let ((?x96 (store ?x94 41 31)))
(let ((?x98 (store ?x96 42 30)))
(let ((?x100 (store ?x98 43 31)))
(let ((?x102 (store ?x100 44 30)))
(let ((?x104 (store ?x102 45 31)))
(let ((?x106 (store ?x104 46 31)))
(let ((?x108 (store ?x106 47 29)))
(let ((?x3764 (ite (or (= 22802 (+ ?x3927 24003)) (= 25202 (+ ?x3927 24003))) 28 (select ?x108 ?x3987))))
(let ((?x5137 (- ?x3764 1)))
(let ((?x114 (store (store (store (store ?x13 0 0) 1 31) 2 61) 3 92)))
(let ((?x122 (store (store (store (store ?x114 4 122) 5 153) 6 184) 7 214)))
(let ((?x130 (store (store (store (store ?x122 8 245) 9 275) 10 306) 11 337)))
(let ((?x138 (store (store (store (store ?x130 12 365) 13 396) 14 426) 15 457)))
(let ((?x146 (store (store (store (store ?x138 16 487) 17 518) 18 549) 19 579)))
(let ((?x154 (store (store (store (store ?x146 20 610) 21 640) 22 671) 23 702)))
(let ((?x162 (store (store (store (store ?x154 24 730) 25 761) 26 791) 27 822)))
(let ((?x170 (store (store (store (store ?x162 28 852) 29 883) 30 914) 31 944)))
(let ((?x178 (store (store (store (store ?x170 32 975) 33 1005) 34 1036) 35 1067)))
(let ((?x186 (store (store (store (store ?x178 36 1095) 37 1126) 38 1156) 39 1187)))
(let ((?x194 (store (store (store (store ?x186 40 1217) 41 1248) 42 1279) 43 1309)))
(let ((?x202 (store (store (store (store ?x194 44 1340) 45 1370) 46 1401) 47 1432)))
(let ((?x2329 (+ (select ?x202 ?x3987) (ite (> 0 x_beta) 0 (ite (> x_beta ?x5137) ?x5137 x_beta)))))
(let ((?x5248 (+ (+ ?x2329 ?x4571) 0)))
(let ((?x4444 (+ ?x3927 (* (div ?x5248 1461) 48))))
(let ((?x2650 (+ (+ ?x4444 (- 1 ?x3987)) 24003)))
(let ((?x390 (+ (select ?x202 1) (ite (> 22803 ?x2650) 1 (ite (<= 25203 ?x2650) (- 1) 0)))))
(let ((?x4310 (mod ?x5248 1461)))
(let ((?x1262 (ite (> 22803 (+ (+ ?x4444 (- 2 ?x3987)) 24003)) 1 (ite (<= 25203 (+ (+ ?x4444 (- 2 ?x3987)) 24003)) (- 1) 0))))
(let ((?x4400 (ite (>= ?x4310 (+ (select ?x202 2) ?x1262)) 2 (ite (>= ?x4310 ?x390) 1 0))))
(let ((?x4116 (ite (> 22803 (+ (+ ?x4444 (- 3 ?x3987)) 24003)) 1 (ite (<= 25203 (+ (+ ?x4444 (- 3 ?x3987)) 24003)) (- 1) 0))))
(let ((?x2488 (ite (> 22803 (+ (+ ?x4444 (- 4 ?x3987)) 24003)) 1 (ite (<= 25203 (+ (+ ?x4444 (- 4 ?x3987)) 24003)) (- 1) 0))))
(let ((?x1812 (ite (>= ?x4310 (+ (select ?x202 4) ?x2488)) 4 (ite (>= ?x4310 (+ (select ?x202 3) ?x4116)) 3 ?x4400))))
(let ((?x3494 (ite (> 22803 (+ (+ ?x4444 (- 5 ?x3987)) 24003)) 1 (ite (<= 25203 (+ (+ ?x4444 (- 5 ?x3987)) 24003)) (- 1) 0))))
(let ((?x5245 (ite (> 22803 (+ (+ ?x4444 (- 6 ?x3987)) 24003)) 1 (ite (<= 25203 (+ (+ ?x4444 (- 6 ?x3987)) 24003)) (- 1) 0))))
(let ((?x4677 (ite (>= ?x4310 (+ (select ?x202 6) ?x5245)) 6 (ite (>= ?x4310 (+ (select ?x202 5) ?x3494)) 5 ?x1812))))
(let ((?x3934 (ite (> 22803 (+ (+ ?x4444 (- 7 ?x3987)) 24003)) 1 (ite (<= 25203 (+ (+ ?x4444 (- 7 ?x3987)) 24003)) (- 1) 0))))
(let ((?x1331 (ite (> 22803 (+ (+ ?x4444 (- 8 ?x3987)) 24003)) 1 (ite (<= 25203 (+ (+ ?x4444 (- 8 ?x3987)) 24003)) (- 1) 0))))
(let ((?x236 (ite (>= ?x4310 (+ (select ?x202 8) ?x1331)) 8 (ite (>= ?x4310 (+ (select ?x202 7) ?x3934)) 7 ?x4677))))
(let ((?x3567 (ite (> 22803 (+ (+ ?x4444 (- 9 ?x3987)) 24003)) 1 (ite (<= 25203 (+ (+ ?x4444 (- 9 ?x3987)) 24003)) (- 1) 0))))
(let ((?x3307 (ite (> 22803 (+ (+ ?x4444 (- 10 ?x3987)) 24003)) 1 (ite (<= 25203 (+ (+ ?x4444 (- 10 ?x3987)) 24003)) (- 1) 0))))
(let ((?x3476 (ite (>= ?x4310 (+ (select ?x202 10) ?x3307)) 10 (ite (>= ?x4310 (+ (select ?x202 9) ?x3567)) 9 ?x236))))
(let ((?x3049 (ite (> 22803 (+ (+ ?x4444 (- 11 ?x3987)) 24003)) 1 (ite (<= 25203 (+ (+ ?x4444 (- 11 ?x3987)) 24003)) (- 1) 0))))
(let ((?x4802 (ite (> 22803 (+ (+ ?x4444 (- 12 ?x3987)) 24003)) 1 (ite (<= 25203 (+ (+ ?x4444 (- 12 ?x3987)) 24003)) (- 1) 0))))
(let ((?x825 (ite (>= ?x4310 (+ (select ?x202 12) ?x4802)) 12 (ite (>= ?x4310 (+ (select ?x202 11) ?x3049)) 11 ?x3476))))
(let ((?x3768 (ite (> 22803 (+ (+ ?x4444 (- 13 ?x3987)) 24003)) 1 (ite (<= 25203 (+ (+ ?x4444 (- 13 ?x3987)) 24003)) (- 1) 0))))
(let ((?x2366 (ite (> 22803 (+ (+ ?x4444 (- 14 ?x3987)) 24003)) 1 (ite (<= 25203 (+ (+ ?x4444 (- 14 ?x3987)) 24003)) (- 1) 0))))
(let ((?x2346 (ite (>= ?x4310 (+ (select ?x202 14) ?x2366)) 14 (ite (>= ?x4310 (+ (select ?x202 13) ?x3768)) 13 ?x825))))
(let ((?x1320 (ite (> 22803 (+ (+ ?x4444 (- 15 ?x3987)) 24003)) 1 (ite (<= 25203 (+ (+ ?x4444 (- 15 ?x3987)) 24003)) (- 1) 0))))
(let ((?x1883 (ite (> 22803 (+ (+ ?x4444 (- 16 ?x3987)) 24003)) 1 (ite (<= 25203 (+ (+ ?x4444 (- 16 ?x3987)) 24003)) (- 1) 0))))
(let ((?x1874 (ite (>= ?x4310 (+ (select ?x202 16) ?x1883)) 16 (ite (>= ?x4310 (+ (select ?x202 15) ?x1320)) 15 ?x2346))))
(let ((?x3603 (ite (> 22803 (+ (+ ?x4444 (- 17 ?x3987)) 24003)) 1 (ite (<= 25203 (+ (+ ?x4444 (- 17 ?x3987)) 24003)) (- 1) 0))))
(let ((?x5500 (ite (> 22803 (+ (+ ?x4444 (- 18 ?x3987)) 24003)) 1 (ite (<= 25203 (+ (+ ?x4444 (- 18 ?x3987)) 24003)) (- 1) 0))))
(let ((?x5280 (ite (>= ?x4310 (+ (select ?x202 18) ?x5500)) 18 (ite (>= ?x4310 (+ (select ?x202 17) ?x3603)) 17 ?x1874))))
(let ((?x5246 (ite (> 22803 (+ (+ ?x4444 (- 19 ?x3987)) 24003)) 1 (ite (<= 25203 (+ (+ ?x4444 (- 19 ?x3987)) 24003)) (- 1) 0))))
(let ((?x4668 (ite (> 22803 (+ (+ ?x4444 (- 20 ?x3987)) 24003)) 1 (ite (<= 25203 (+ (+ ?x4444 (- 20 ?x3987)) 24003)) (- 1) 0))))
(let ((?x2384 (ite (>= ?x4310 (+ (select ?x202 20) ?x4668)) 20 (ite (>= ?x4310 (+ (select ?x202 19) ?x5246)) 19 ?x5280))))
(let ((?x4957 (ite (> 22803 (+ (+ ?x4444 (- 21 ?x3987)) 24003)) 1 (ite (<= 25203 (+ (+ ?x4444 (- 21 ?x3987)) 24003)) (- 1) 0))))
(let ((?x3615 (ite (> 22803 (+ (+ ?x4444 (- 22 ?x3987)) 24003)) 1 (ite (<= 25203 (+ (+ ?x4444 (- 22 ?x3987)) 24003)) (- 1) 0))))
(let ((?x1065 (ite (>= ?x4310 (+ (select ?x202 22) ?x3615)) 22 (ite (>= ?x4310 (+ (select ?x202 21) ?x4957)) 21 ?x2384))))
(let ((?x4919 (ite (> 22803 (+ (+ ?x4444 (- 23 ?x3987)) 24003)) 1 (ite (<= 25203 (+ (+ ?x4444 (- 23 ?x3987)) 24003)) (- 1) 0))))
(let ((?x2383 (ite (> 22803 (+ (+ ?x4444 (- 24 ?x3987)) 24003)) 1 (ite (<= 25203 (+ (+ ?x4444 (- 24 ?x3987)) 24003)) (- 1) 0))))
(let ((?x5558 (ite (>= ?x4310 (+ (select ?x202 24) ?x2383)) 24 (ite (>= ?x4310 (+ (select ?x202 23) ?x4919)) 23 ?x1065))))
(let ((?x3122 (ite (> 22803 (+ (+ ?x4444 (- 25 ?x3987)) 24003)) 1 (ite (<= 25203 (+ (+ ?x4444 (- 25 ?x3987)) 24003)) (- 1) 0))))
(let ((?x5479 (ite (> 22803 (+ (+ ?x4444 (- 26 ?x3987)) 24003)) 1 (ite (<= 25203 (+ (+ ?x4444 (- 26 ?x3987)) 24003)) (- 1) 0))))
(let ((?x2484 (ite (>= ?x4310 (+ (select ?x202 26) ?x5479)) 26 (ite (>= ?x4310 (+ (select ?x202 25) ?x3122)) 25 ?x5558))))
(let ((?x3320 (ite (> 22803 (+ (+ ?x4444 (- 27 ?x3987)) 24003)) 1 (ite (<= 25203 (+ (+ ?x4444 (- 27 ?x3987)) 24003)) (- 1) 0))))
(let ((?x5243 (ite (> 22803 (+ (+ ?x4444 (- 28 ?x3987)) 24003)) 1 (ite (<= 25203 (+ (+ ?x4444 (- 28 ?x3987)) 24003)) (- 1) 0))))
(let ((?x1172 (ite (>= ?x4310 (+ (select ?x202 28) ?x5243)) 28 (ite (>= ?x4310 (+ (select ?x202 27) ?x3320)) 27 ?x2484))))
(let ((?x3202 (ite (> 22803 (+ (+ ?x4444 (- 29 ?x3987)) 24003)) 1 (ite (<= 25203 (+ (+ ?x4444 (- 29 ?x3987)) 24003)) (- 1) 0))))
(let ((?x2032 (ite (> 22803 (+ (+ ?x4444 (- 30 ?x3987)) 24003)) 1 (ite (<= 25203 (+ (+ ?x4444 (- 30 ?x3987)) 24003)) (- 1) 0))))
(let ((?x4149 (ite (>= ?x4310 (+ (select ?x202 30) ?x2032)) 30 (ite (>= ?x4310 (+ (select ?x202 29) ?x3202)) 29 ?x1172))))
(let ((?x4377 (ite (> 22803 (+ (+ ?x4444 (- 31 ?x3987)) 24003)) 1 (ite (<= 25203 (+ (+ ?x4444 (- 31 ?x3987)) 24003)) (- 1) 0))))
(let ((?x4511 (ite (> 22803 (+ (+ ?x4444 (- 32 ?x3987)) 24003)) 1 (ite (<= 25203 (+ (+ ?x4444 (- 32 ?x3987)) 24003)) (- 1) 0))))
(let ((?x2310 (ite (>= ?x4310 (+ (select ?x202 32) ?x4511)) 32 (ite (>= ?x4310 (+ (select ?x202 31) ?x4377)) 31 ?x4149))))
(let ((?x3966 (ite (> 22803 (+ (+ ?x4444 (- 33 ?x3987)) 24003)) 1 (ite (<= 25203 (+ (+ ?x4444 (- 33 ?x3987)) 24003)) (- 1) 0))))
(let ((?x3983 (ite (> 22803 (+ (+ ?x4444 (- 34 ?x3987)) 24003)) 1 (ite (<= 25203 (+ (+ ?x4444 (- 34 ?x3987)) 24003)) (- 1) 0))))
(let ((?x1518 (ite (>= ?x4310 (+ (select ?x202 34) ?x3983)) 34 (ite (>= ?x4310 (+ (select ?x202 33) ?x3966)) 33 ?x2310))))
(let ((?x2258 (ite (> 22803 (+ (+ ?x4444 (- 35 ?x3987)) 24003)) 1 (ite (<= 25203 (+ (+ ?x4444 (- 35 ?x3987)) 24003)) (- 1) 0))))
(let ((?x3766 (ite (> 22803 (+ (+ ?x4444 (- 36 ?x3987)) 24003)) 1 (ite (<= 25203 (+ (+ ?x4444 (- 36 ?x3987)) 24003)) (- 1) 0))))
(let ((?x3590 (ite (>= ?x4310 (+ (select ?x202 36) ?x3766)) 36 (ite (>= ?x4310 (+ (select ?x202 35) ?x2258)) 35 ?x1518))))
(let ((?x1927 (ite (> 22803 (+ (+ ?x4444 (- 37 ?x3987)) 24003)) 1 (ite (<= 25203 (+ (+ ?x4444 (- 37 ?x3987)) 24003)) (- 1) 0))))
(let ((?x1751 (ite (> 22803 (+ (+ ?x4444 (- 38 ?x3987)) 24003)) 1 (ite (<= 25203 (+ (+ ?x4444 (- 38 ?x3987)) 24003)) (- 1) 0))))
(let ((?x1689 (ite (>= ?x4310 (+ (select ?x202 38) ?x1751)) 38 (ite (>= ?x4310 (+ (select ?x202 37) ?x1927)) 37 ?x3590))))
(let ((?x2083 (ite (> 22803 (+ (+ ?x4444 (- 39 ?x3987)) 24003)) 1 (ite (<= 25203 (+ (+ ?x4444 (- 39 ?x3987)) 24003)) (- 1) 0))))
(let ((?x979 (ite (> 22803 (+ (+ ?x4444 (- 40 ?x3987)) 24003)) 1 (ite (<= 25203 (+ (+ ?x4444 (- 40 ?x3987)) 24003)) (- 1) 0))))
(let ((?x4492 (ite (>= ?x4310 (+ (select ?x202 40) ?x979)) 40 (ite (>= ?x4310 (+ (select ?x202 39) ?x2083)) 39 ?x1689))))
(let ((?x3789 (ite (> 22803 (+ (+ ?x4444 (- 41 ?x3987)) 24003)) 1 (ite (<= 25203 (+ (+ ?x4444 (- 41 ?x3987)) 24003)) (- 1) 0))))
(let ((?x3293 (ite (> 22803 (+ (+ ?x4444 (- 42 ?x3987)) 24003)) 1 (ite (<= 25203 (+ (+ ?x4444 (- 42 ?x3987)) 24003)) (- 1) 0))))
(let ((?x2362 (ite (>= ?x4310 (+ (select ?x202 42) ?x3293)) 42 (ite (>= ?x4310 (+ (select ?x202 41) ?x3789)) 41 ?x4492))))
(let ((?x4291 (ite (> 22803 (+ (+ ?x4444 (- 43 ?x3987)) 24003)) 1 (ite (<= 25203 (+ (+ ?x4444 (- 43 ?x3987)) 24003)) (- 1) 0))))
(let ((?x3873 (ite (> 22803 (+ (+ ?x4444 (- 44 ?x3987)) 24003)) 1 (ite (<= 25203 (+ (+ ?x4444 (- 44 ?x3987)) 24003)) (- 1) 0))))
(let ((?x428 (ite (>= ?x4310 (+ (select ?x202 44) ?x3873)) 44 (ite (>= ?x4310 (+ (select ?x202 43) ?x4291)) 43 ?x2362))))
(let ((?x1547 (ite (> 22803 (+ (+ ?x4444 (- 45 ?x3987)) 24003)) 1 (ite (<= 25203 (+ (+ ?x4444 (- 45 ?x3987)) 24003)) (- 1) 0))))
(let ((?x4196 (ite (> 22803 (+ (+ ?x4444 (- 46 ?x3987)) 24003)) 1 (ite (<= 25203 (+ (+ ?x4444 (- 46 ?x3987)) 24003)) (- 1) 0))))
(let ((?x2358 (ite (>= ?x4310 (+ (select ?x202 46) ?x4196)) 46 (ite (>= ?x4310 (+ (select ?x202 45) ?x1547)) 45 ?x428))))
(let ((?x3778 (ite (> 22803 (+ (+ ?x4444 (- 47 ?x3987)) 24003)) 1 (ite (<= 25203 (+ (+ ?x4444 (- 47 ?x3987)) 24003)) (- 1) 0))))
(let ((?x1612 (ite (>= ?x4310 (+ (select ?x202 47) ?x3778)) 47 ?x2358)))
(let ((?x4024 (+ ?x4444 (- ?x1612 ?x3987))))
(let ((?x4408 (+ ?x4024 24003)))
(let ((?x4192 (+ (select ?x202 ?x1612) (ite (> 22803 ?x4408) 1 (ite (<= 25203 ?x4408) (- 1) 0)))))
(let ((?x1598 (- ?x4310 ?x4192)))
(let ((?x2913 (ite (or (= 22802 ?x4408) (= 25202 ?x4408)) 28 (select ?x108 ?x1612))))
(let (($x710 (= 27 (ite (= 1 (ite (>= ?x1598 ?x2913) 1 0)) (- ?x1598 ?x2913) ?x1598))))
(let (($x2740 (= (+ ?x4024 (ite (>= ?x1598 ?x2913) 1 0)) (- (+ (* 2021 12) 2) 24003))))
(and $x2740 $x710)))))))))))))))))))))))))))))))))))))))))))))))))))))))))))))))))))))))))))))))))))))))))))))))))))))))))))))))))))))))))))))))))))))))))))))))))))))))
(check-sat)
